p edges 995 1890
n 1 1e+20
n 2 5e+20
n 3 4e+20
n 4 4e+20
n 5 6e+20
n 6 1e+20
n 7 1e+20
n 8 2e+20
n 9 5e+20
n 10 1e+20
n 11 1e+20
n 12 2e+20
n 13 1e+20
n 14 1e+20
n 15 1e+20
n 16 1e+20
n 17 1e+20
n 18 1e+20
n 19 1e+20
n 20 1e+20
n 21 1e+20
n 22 1e+20
n 23 5e+20
n 24 4e+20
n 25 4e+20
n 26 6e+20
n 27 1e+20
n 28 1e+20
n 29 2e+20
n 30 5e+20
n 31 1e+20
n 32 1e+20
n 33 2e+20
n 34 1e+20
n 35 1e+20
n 36 1e+20
n 37 1e+20
n 38 1e+20
n 39 1e+20
n 40 1e+20
n 41 1e+20
n 42 1e+20
n 43 1e+20
n 44 5e+20
n 45 4e+20
n 46 4e+20
n 47 6e+20
n 48 1e+20
n 49 1e+20
n 50 2e+20
n 51 5e+20
n 52 1e+20
n 53 1e+20
n 54 2e+20
n 55 1e+20
n 56 1e+20
n 57 1e+20
n 58 1e+20
n 59 1e+20
n 60 1e+20
n 61 1e+20
n 62 1e+20
n 63 1e+20
n 64 1e+20
n 65 5e+20
n 66 4e+20
n 67 4e+20
n 68 6e+20
n 69 1e+20
n 70 1e+20
n 71 2e+20
n 72 5e+20
n 73 1e+20
n 74 1e+20
n 75 2e+20
n 76 1e+20
n 77 1e+20
n 78 1e+20
n 79 1e+20
n 80 1e+20
n 81 1e+20
n 82 1e+20
n 83 1e+20
n 84 1e+20
n 85 1e+20
n 86 5e+20
n 87 4e+20
n 88 4e+20
n 89 6e+20
n 90 1e+20
n 91 1e+20
n 92 2e+20
n 93 5e+20
n 94 1e+20
n 95 1e+20
n 96 2e+20
n 97 1e+20
n 98 1e+20
n 99 1e+20
n 100 1e+20
n 101 1e+20
n 102 1e+20
n 103 1e+20
n 104 1e+20
n 105 1e+20
n 106 1.2e+21
n 107 9e+20
n 108 9e+20
n 109 9e+20
n 110 9e+20
n 111 1e+20
n 112 1.2e+21
n 113 9e+20
n 114 9e+20
n 115 9e+20
n 116 9e+20
n 117 1e+20
n 118 1.2e+21
n 119 9e+20
n 120 9e+20
n 121 9e+20
n 122 9e+20
n 123 1e+20
n 124 1.2e+21
n 125 9e+20
n 126 9e+20
n 127 9e+20
n 128 9e+20
n 129 1e+20
n 130 1.2e+21
n 131 9e+20
n 132 9e+20
n 133 9e+20
n 134 9e+20
n 135 1e+20
n 136 1.2e+21
n 137 9e+20
n 138 9e+20
n 139 9e+20
n 140 9e+20
n 141 1e+20
n 142 1.2e+21
n 143 9e+20
n 144 9e+20
n 145 9e+20
n 146 9e+20
n 147 1e+20
n 148 1.2e+21
n 149 9e+20
n 150 9e+20
n 151 9e+20
n 152 9e+20
n 153 1e+20
n 154 1.2e+21
n 155 9e+20
n 156 9e+20
n 157 9e+20
n 158 9e+20
n 159 1e+20
n 160 1.2e+21
n 161 9e+20
n 162 9e+20
n 163 9e+20
n 164 9e+20
n 165 1e+20
n 166 1e+20
n 167 1e+20
n 168 1e+20
n 169 1e+20
n 170 1e+20
n 171 1e+20
n 172 1e+20
n 173 1e+20
n 174 1e+20
n 175 1e+20
n 176 1e+20
n 177 1e+20
n 178 1e+20
n 179 1e+20
n 180 1e+20
n 181 1e+20
n 182 1e+20
n 183 1e+20
n 184 1e+20
n 185 1e+20
n 186 1e+20
n 187 1e+20
n 188 1e+20
n 189 1e+20
n 190 1e+20
n 191 1e+20
n 192 1e+20
n 193 1e+20
n 194 1e+20
n 195 1e+20
n 196 1e+20
n 197 1e+20
n 198 1e+20
n 199 1e+20
n 200 1e+20
n 201 1e+20
n 202 1e+20
n 203 1e+20
n 204 1e+20
n 205 1e+20
n 206 1e+20
n 207 1e+20
n 208 1e+20
n 209 1e+20
n 210 1e+20
n 211 1e+20
n 212 1e+20
n 213 1e+20
n 214 1e+20
n 215 1e+20
n 216 1e+20
n 217 1e+20
n 218 1e+20
n 219 1e+20
n 220 1e+20
n 221 1e+20
n 222 1e+20
n 223 1e+20
n 224 1e+20
n 225 1e+20
n 226 1e+20
n 227 1e+20
n 228 1e+20
n 229 1e+20
n 230 1e+20
n 231 1e+20
n 232 1e+20
n 233 1e+20
n 234 1e+20
n 235 1e+20
n 236 1e+20
n 237 1e+20
n 238 1e+20
n 239 1e+20
n 240 1e+20
n 241 1e+20
n 242 1e+20
n 243 1e+20
n 244 1e+20
n 245 1e+20
n 246 1e+20
n 247 1e+20
n 248 1e+20
n 249 1e+20
n 250 1e+20
n 251 1e+20
n 252 1e+20
n 253 1e+20
n 254 1e+20
n 255 1e+20
n 256 1e+20
n 257 1e+20
n 258 1e+20
n 259 1e+20
n 260 1e+20
n 261 1e+20
n 262 1e+20
n 263 1e+20
n 264 1e+20
n 265 1e+20
n 266 1e+20
n 267 1e+20
n 268 1e+20
n 269 1e+20
n 270 1e+20
n 271 1e+20
n 272 1e+20
n 273 1e+20
n 274 1e+20
n 275 1e+20
n 276 1e+20
n 277 1e+20
n 278 1e+20
n 279 1e+20
n 280 1e+20
n 281 1e+20
n 282 1e+20
n 283 1e+20
n 284 1e+20
n 285 1e+20
n 286 1e+20
n 287 1e+20
n 288 1e+20
n 289 1e+20
n 290 1e+20
n 291 1e+20
n 292 1e+20
n 293 1e+20
n 294 1e+20
n 295 1e+20
n 296 1e+20
n 297 1e+20
n 298 1e+20
n 299 1e+20
n 300 1e+20
n 301 1e+20
n 302 1e+20
n 303 1e+20
n 304 1e+20
n 305 1e+20
n 306 1e+20
n 307 1e+20
n 308 1e+20
n 309 1e+20
n 310 1e+20
n 311 1e+20
n 312 1e+20
n 313 1e+20
n 314 1e+20
n 315 1e+20
n 316 1e+20
n 317 1e+20
n 318 1e+20
n 319 1e+20
n 320 1e+20
n 321 1e+20
n 322 1e+20
n 323 1e+20
n 324 1e+20
n 325 1e+20
n 326 1e+20
n 327 1e+20
n 328 1e+20
n 329 1e+20
n 330 1e+20
n 331 1e+20
n 332 1e+20
n 333 1e+20
n 334 1e+20
n 335 1e+20
n 336 1e+20
n 337 1e+20
n 338 1e+20
n 339 1e+20
n 340 1e+20
n 341 1e+20
n 342 1e+20
n 343 1e+20
n 344 1e+20
n 345 1e+20
n 346 1e+20
n 347 1e+20
n 348 1e+20
n 349 1e+20
n 350 1e+20
n 351 1e+20
n 352 1e+20
n 353 1e+20
n 354 1e+20
n 355 1e+20
n 356 1e+20
n 357 1e+20
n 358 1e+20
n 359 1e+20
n 360 1e+20
n 361 1e+20
n 362 1e+20
n 363 1e+20
n 364 1e+20
n 365 1e+20
n 366 1e+20
n 367 1e+20
n 368 1e+20
n 369 1e+20
n 370 1e+20
n 371 1e+20
n 372 1e+20
n 373 1e+20
n 374 1e+20
n 375 1e+20
n 376 1e+20
n 377 1e+20
n 378 1e+20
n 379 1e+20
n 380 1e+20
n 381 1e+20
n 382 1e+20
n 383 1e+20
n 384 1e+20
n 385 1e+20
n 386 1e+20
n 387 1e+20
n 388 1e+20
n 389 1e+20
n 390 1e+20
n 391 1e+20
n 392 1e+20
n 393 1e+20
n 394 1e+20
n 395 1e+20
n 396 1e+20
n 397 1e+20
n 398 1e+20
n 399 1e+20
n 400 1e+20
n 401 1e+20
n 402 1e+20
n 403 1e+20
n 404 1e+20
n 405 1e+20
n 406 1e+20
n 407 1e+20
n 408 1e+20
n 409 1e+20
n 410 1e+20
n 411 1e+20
n 412 1e+20
n 413 1e+20
n 414 1e+20
n 415 1e+20
n 416 1e+20
n 417 1e+20
n 418 1e+20
n 419 1e+20
n 420 1e+20
n 421 1e+20
n 422 1e+20
n 423 1e+20
n 424 1e+20
n 425 1e+20
n 426 1e+20
n 427 1e+20
n 428 1e+20
n 429 1e+20
n 430 1e+20
n 431 1e+20
n 432 1e+20
n 433 1e+20
n 434 1e+20
n 435 1e+20
n 436 1e+20
n 437 1e+20
n 438 1e+20
n 439 1e+20
n 440 1e+20
n 441 1e+20
n 442 1e+20
n 443 1e+20
n 444 1e+20
n 445 1e+20
n 446 1e+20
n 447 1e+20
n 448 1e+20
n 449 1e+20
n 450 1e+20
n 451 1e+20
n 452 1e+20
n 453 1e+20
n 454 1e+20
n 455 1e+20
n 456 1e+20
n 457 1e+20
n 458 1e+20
n 459 1e+20
n 460 1e+20
n 461 1e+20
n 462 1e+20
n 463 1e+20
n 464 1e+20
n 465 1e+20
n 466 1e+20
n 467 1e+20
n 468 1e+20
n 469 1e+20
n 470 1e+20
n 471 1e+20
n 472 1e+20
n 473 1e+20
n 474 1e+20
n 475 1e+20
n 476 1e+20
n 477 1e+20
n 478 1e+20
n 479 1e+20
n 480 1e+20
n 481 1e+20
n 482 1e+20
n 483 1e+20
n 484 1e+20
n 485 1e+20
n 486 1e+20
n 487 1e+20
n 488 1e+20
n 489 1e+20
n 490 1e+20
n 491 1e+20
n 492 1e+20
n 493 1e+20
n 494 1e+20
n 495 1e+20
n 496 1e+20
n 497 1e+20
n 498 1e+20
n 499 1e+20
n 500 1e+20
n 501 1e+20
n 502 1e+20
n 503 1e+20
n 504 1e+20
n 505 1e+20
n 506 1e+20
n 507 1e+20
n 508 1e+20
n 509 1e+20
n 510 1e+20
n 511 1e+20
n 512 1e+20
n 513 1e+20
n 514 1e+20
n 515 1e+20
n 516 1e+20
n 517 1e+20
n 518 1e+20
n 519 1e+20
n 520 1e+20
n 521 1e+20
n 522 1e+20
n 523 1e+20
n 524 1e+20
n 525 1e+20
n 526 1e+20
n 527 1e+20
n 528 1e+20
n 529 1e+20
n 530 1e+20
n 531 1e+20
n 532 1e+20
n 533 1e+20
n 534 1e+20
n 535 1e+20
n 536 1e+20
n 537 1e+20
n 538 1e+20
n 539 1e+20
n 540 1e+20
n 541 1e+20
n 542 1e+20
n 543 1e+20
n 544 1e+20
n 545 1e+20
n 546 1e+20
n 547 1e+20
n 548 1e+20
n 549 1e+20
n 550 1e+20
n 551 1e+20
n 552 1e+20
n 553 1e+20
n 554 1e+20
n 555 1e+20
n 556 1e+20
n 557 1e+20
n 558 1e+20
n 559 1e+20
n 560 1e+20
n 561 1e+20
n 562 1e+20
n 563 1e+20
n 564 1e+20
n 565 1e+20
n 566 1e+20
n 567 1e+20
n 568 1e+20
n 569 1e+20
n 570 1e+20
n 571 1e+20
n 572 1e+20
n 573 1e+20
n 574 1e+20
n 575 1e+20
n 576 1e+20
n 577 1e+20
n 578 1e+20
n 579 1e+20
n 580 1e+20
n 581 1e+20
n 582 1e+20
n 583 1e+20
n 584 1e+20
n 585 1e+20
n 586 1e+20
n 587 1e+20
n 588 1e+20
n 589 1e+20
n 590 1e+20
n 591 1e+20
n 592 1e+20
n 593 1e+20
n 594 1e+20
n 595 1e+20
n 596 1e+20
n 597 1e+20
n 598 1e+20
n 599 1e+20
n 600 1e+20
n 601 1e+20
n 602 1e+20
n 603 1e+20
n 604 1e+20
n 605 1e+20
n 606 1e+20
n 607 1e+20
n 608 1e+20
n 609 1e+20
n 610 1e+20
n 611 2e+20
n 612 2e+20
n 613 1e+20
n 614 1e+20
n 615 1e+20
n 616 1e+20
n 617 1e+20
n 618 1e+20
n 619 1e+20
n 620 1e+20
n 621 1e+20
n 622 1e+20
n 623 1e+20
n 624 1e+20
n 625 1e+20
n 626 2e+20
n 627 2e+20
n 628 1e+20
n 629 1e+20
n 630 1e+20
n 631 1e+20
n 632 1e+20
n 633 1e+20
n 634 1e+20
n 635 1e+20
n 636 1e+20
n 637 1e+20
n 638 1e+20
n 639 2e+20
n 640 2e+20
n 641 1e+20
n 642 1e+20
n 643 1e+20
n 644 1e+20
n 645 1e+20
n 646 1e+20
n 647 1e+20
n 648 1e+20
n 649 1e+20
n 650 1e+20
n 651 1e+20
n 652 1e+20
n 653 1e+20
n 654 2e+20
n 655 2e+20
n 656 1e+20
n 657 1e+20
n 658 1e+20
n 659 1e+20
n 660 1e+20
n 661 1e+20
n 662 1e+20
n 663 1e+20
n 664 1e+20
n 665 1e+20
n 666 1e+20
n 667 2e+20
n 668 2e+20
n 669 1e+20
n 670 1e+20
n 671 1e+20
n 672 1e+20
n 673 1e+20
n 674 1e+20
n 675 1e+20
n 676 1e+20
n 677 1e+20
n 678 1e+20
n 679 1e+20
n 680 1e+20
n 681 1e+20
n 682 2e+20
n 683 2e+20
n 684 1e+20
n 685 1e+20
n 686 1e+20
n 687 1e+20
n 688 1e+20
n 689 1e+20
n 690 1e+20
n 691 1e+20
n 692 1e+20
n 693 1e+20
n 694 1e+20
n 695 2e+20
n 696 2e+20
n 697 1e+20
n 698 1e+20
n 699 1e+20
n 700 1e+20
n 701 1e+20
n 702 1e+20
n 703 1e+20
n 704 1e+20
n 705 1e+20
n 706 1e+20
n 707 1e+20
n 708 1e+20
n 709 1e+20
n 710 2e+20
n 711 2e+20
n 712 1e+20
n 713 1e+20
n 714 1e+20
n 715 1e+20
n 716 1e+20
n 717 1e+20
n 718 1e+20
n 719 1e+20
n 720 1e+20
n 721 1e+20
n 722 1e+20
n 723 2e+20
n 724 2e+20
n 725 1e+20
n 726 1e+20
n 727 1e+20
n 728 1e+20
n 729 1e+20
n 730 1e+20
n 731 1e+20
n 732 1e+20
n 733 1e+20
n 734 1e+20
n 735 1e+20
n 736 1e+20
n 737 1e+20
n 738 2e+20
n 739 2e+20
n 740 1e+20
n 741 1e+20
n 742 1e+20
n 743 1e+20
n 744 1e+20
n 745 1e+20
n 746 1e+20
n 747 1e+20
n 748 1e+20
n 749 1e+20
n 750 1e+20
n 751 1e+20
n 752 1e+20
n 753 1e+20
n 754 1e+20
n 755 1e+20
n 756 1e+20
n 757 1e+20
n 758 1e+20
n 759 1e+20
n 760 1e+20
n 761 1e+20
n 762 1e+20
n 763 1e+20
n 764 1e+20
n 765 1e+20
n 766 1e+20
n 767 1e+20
n 768 1e+20
n 769 1e+20
n 770 1e+20
n 771 1e+20
n 772 1e+20
n 773 1e+20
n 774 1e+20
n 775 1e+20
n 776 1e+20
n 777 1e+20
n 778 1e+20
n 779 1e+20
n 780 1e+20
n 781 1e+20
n 782 1e+20
n 783 1e+20
n 784 1e+20
n 785 1e+20
n 786 1e+20
n 787 1e+20
n 788 1e+20
n 789 1e+20
n 790 1e+20
n 791 1e+20
n 792 1e+20
n 793 1e+20
n 794 1e+20
n 795 1e+20
n 796 1e+20
n 797 1e+20
n 798 1e+20
n 799 1e+20
n 800 1e+20
n 801 1e+20
n 802 1e+20
n 803 1e+20
n 804 1e+20
n 805 1e+20
n 806 1e+20
n 807 1e+20
n 808 1e+20
n 809 1e+20
n 810 1e+20
n 811 1e+20
n 812 1e+20
n 813 1e+20
n 814 2e+20
n 815 2e+20
n 816 1e+20
n 817 1e+20
n 818 1e+20
n 819 1e+20
n 820 1e+20
n 821 1e+20
n 822 1e+20
n 823 1e+20
n 824 1e+20
n 825 1e+20
n 826 1e+20
n 827 1e+20
n 828 1e+20
n 829 1e+20
n 830 1e+20
n 831 1e+20
n 832 1e+20
n 833 1e+20
n 834 2e+20
n 835 2e+20
n 836 1e+20
n 837 1e+20
n 838 1e+20
n 839 1e+20
n 840 1e+20
n 841 1e+20
n 842 1e+20
n 843 1e+20
n 844 1e+20
n 845 1e+20
n 846 1e+20
n 847 1e+20
n 848 1e+20
n 849 1e+20
n 850 1e+20
n 851 1e+20
n 852 1e+20
n 853 1e+20
n 854 2e+20
n 855 2e+20
n 856 1e+20
n 857 1e+20
n 858 1e+20
n 859 1e+20
n 860 1e+20
n 861 1e+20
n 862 1e+20
n 863 1e+20
n 864 1e+20
n 865 1e+20
n 866 1e+20
n 867 1e+20
n 868 1e+20
n 869 1e+20
n 870 1e+20
n 871 1e+20
n 872 1e+20
n 873 1e+20
n 874 2e+20
n 875 2e+20
n 876 1e+20
n 877 1e+20
n 878 1e+20
n 879 1e+20
n 880 1e+20
n 881 1e+20
n 882 1e+20
n 883 1e+20
n 884 1e+20
n 885 1e+20
n 886 1e+20
n 887 1e+20
n 888 1e+20
n 889 1e+20
n 890 1e+20
n 891 1e+20
n 892 1e+20
n 893 1e+20
n 894 2e+20
n 895 2e+20
n 896 1e+20
n 897 1e+20
n 898 1e+20
n 899 1e+20
n 900 1e+20
n 901 1e+20
n 902 1e+20
n 903 1e+20
n 904 1e+20
n 905 1e+20
n 906 1e+20
n 907 1e+20
n 908 1e+20
n 909 1e+20
n 910 1e+20
n 911 1e+20
n 912 1e+20
n 913 1e+20
n 914 2e+20
n 915 2e+20
n 916 1e+20
n 917 1e+20
n 918 1e+20
n 919 1e+20
n 920 1e+20
n 921 1e+20
n 922 1e+20
n 923 1e+20
n 924 1e+20
n 925 1e+20
n 926 1e+20
n 927 1e+20
n 928 1e+20
n 929 1e+20
n 930 1e+20
n 931 1e+20
n 932 1e+20
n 933 1e+20
n 934 2e+20
n 935 2e+20
n 936 1e+20
n 937 1e+20
n 938 1e+20
n 939 1e+20
n 940 1e+20
n 941 1e+20
n 942 1e+20
n 943 1e+20
n 944 1e+20
n 945 1e+20
n 946 1e+20
n 947 1e+20
n 948 1e+20
n 949 1e+20
n 950 1e+20
n 951 1e+20
n 952 1e+20
n 953 1e+20
n 954 2e+20
n 955 2e+20
n 956 1e+20
n 957 1e+20
n 958 1e+20
n 959 1e+20
n 960 1e+20
n 961 1e+20
n 962 1e+20
n 963 1e+20
n 964 1e+20
n 965 1e+20
n 966 1e+20
n 967 1e+20
n 968 1e+20
n 969 1e+20
n 970 1e+20
n 971 1e+20
n 972 1e+20
n 973 1e+20
n 974 2e+20
n 975 2e+20
n 976 1e+20
n 977 1e+20
n 978 1e+20
n 979 1e+20
n 980 1e+20
n 981 1e+20
n 982 1e+20
n 983 1e+20
n 984 1e+20
n 985 1e+20
n 986 1e+20
n 987 1e+20
n 988 1e+20
n 989 1e+20
n 990 1e+20
n 991 1e+20
n 992 1e+20
n 993 1e+20
n 994 2e+20
n 995 2e+20
e 6 7
e 7 1
e 6 2
e 6 3
e 6 4
e 6 5
e 10 11
e 11 8
e 10 2
e 10 3
e 10 9
e 10 5
e 13 14
e 14 8
e 13 2
e 13 9
e 13 12
e 13 5
e 15 16
e 16 2
e 15 3
e 15 9
e 15 4
e 15 5
e 17 18
e 18 2
e 17 9
e 17 4
e 17 12
e 17 5
e 20 21
e 21 3
e 20 9
e 20 4
e 20 19
e 20 5
e 27 28
e 28 22
e 27 23
e 27 24
e 27 25
e 27 26
e 31 32
e 32 29
e 31 23
e 31 24
e 31 30
e 31 26
e 34 35
e 35 29
e 34 23
e 34 30
e 34 33
e 34 26
e 36 37
e 37 23
e 36 24
e 36 30
e 36 25
e 36 26
e 38 39
e 39 23
e 38 30
e 38 25
e 38 33
e 38 26
e 41 42
e 42 24
e 41 30
e 41 25
e 41 40
e 41 26
e 48 49
e 49 43
e 48 44
e 48 45
e 48 46
e 48 47
e 52 53
e 53 50
e 52 44
e 52 45
e 52 51
e 52 47
e 55 56
e 56 50
e 55 44
e 55 51
e 55 54
e 55 47
e 57 58
e 58 44
e 57 45
e 57 51
e 57 46
e 57 47
e 59 60
e 60 44
e 59 51
e 59 46
e 59 54
e 59 47
e 62 63
e 63 45
e 62 51
e 62 46
e 62 61
e 62 47
e 69 70
e 70 64
e 69 65
e 69 66
e 69 67
e 69 68
e 73 74
e 74 71
e 73 65
e 73 66
e 73 72
e 73 68
e 76 77
e 77 71
e 76 65
e 76 72
e 76 75
e 76 68
e 78 79
e 79 65
e 78 66
e 78 72
e 78 67
e 78 68
e 80 81
e 81 65
e 80 72
e 80 67
e 80 75
e 80 68
e 83 84
e 84 66
e 83 72
e 83 67
e 83 82
e 83 68
e 90 91
e 91 85
e 90 86
e 90 87
e 90 88
e 90 89
e 94 95
e 95 92
e 94 86
e 94 87
e 94 93
e 94 89
e 97 98
e 98 92
e 97 86
e 97 93
e 97 96
e 97 89
e 99 100
e 100 86
e 99 87
e 99 93
e 99 88
e 99 89
e 101 102
e 102 86
e 101 93
e 101 88
e 101 96
e 101 89
e 104 105
e 105 87
e 104 93
e 104 88
e 104 103
e 104 89
e 106 111
e 107 111
e 108 111
e 109 111
e 110 111
e 112 117
e 113 117
e 114 117
e 115 117
e 116 117
e 118 123
e 119 123
e 120 123
e 121 123
e 122 123
e 124 129
e 125 129
e 126 129
e 127 129
e 128 129
e 130 135
e 131 135
e 132 135
e 133 135
e 134 135
e 136 141
e 137 141
e 138 141
e 139 141
e 140 141
e 142 147
e 143 147
e 144 147
e 145 147
e 146 147
e 148 153
e 149 153
e 150 153
e 151 153
e 152 153
e 154 159
e 155 159
e 156 159
e 157 159
e 158 159
e 160 165
e 161 165
e 162 165
e 163 165
e 164 165
e 166 167
e 167 2
e 166 3
e 166 9
e 166 5
e 168 169
e 169 2
e 168 3
e 168 4
e 168 5
e 170 171
e 171 2
e 170 9
e 170 12
e 170 5
e 172 173
e 173 3
e 172 9
e 172 4
e 172 5
e 174 175
e 175 23
e 174 24
e 174 30
e 174 26
e 176 177
e 177 23
e 176 24
e 176 25
e 176 26
e 178 179
e 179 23
e 178 30
e 178 33
e 178 26
e 180 181
e 181 24
e 180 30
e 180 25
e 180 26
e 182 183
e 183 44
e 182 45
e 182 51
e 182 47
e 184 185
e 185 44
e 184 45
e 184 46
e 184 47
e 186 187
e 187 44
e 186 51
e 186 54
e 186 47
e 188 189
e 189 45
e 188 51
e 188 46
e 188 47
e 190 191
e 191 65
e 190 66
e 190 72
e 190 68
e 192 193
e 193 65
e 192 66
e 192 67
e 192 68
e 194 195
e 195 65
e 194 72
e 194 75
e 194 68
e 196 197
e 197 66
e 196 72
e 196 67
e 196 68
e 198 199
e 199 86
e 198 87
e 198 93
e 198 89
e 200 201
e 201 86
e 200 87
e 200 88
e 200 89
e 202 203
e 203 86
e 202 93
e 202 96
e 202 89
e 204 205
e 205 87
e 204 93
e 204 88
e 204 89
e 206 207
e 207 9
e 206 4
e 206 19
e 206 5
e 208 209
e 209 9
e 208 4
e 208 12
e 208 5
e 210 211
e 211 30
e 210 25
e 210 40
e 210 26
e 212 213
e 213 30
e 212 25
e 212 33
e 212 26
e 214 215
e 215 51
e 214 46
e 214 61
e 214 47
e 216 217
e 217 51
e 216 46
e 216 54
e 216 47
e 218 219
e 219 72
e 218 67
e 218 82
e 218 68
e 220 221
e 221 72
e 220 67
e 220 75
e 220 68
e 222 223
e 223 93
e 222 88
e 222 103
e 222 89
e 224 225
e 225 93
e 224 88
e 224 96
e 224 89
e 226 227
e 227 106
e 226 107
e 226 108
e 226 109
e 228 229
e 229 106
e 228 107
e 228 108
e 228 110
e 230 231
e 231 106
e 230 107
e 230 109
e 230 110
e 232 233
e 233 106
e 232 108
e 232 109
e 232 110
e 234 235
e 235 107
e 234 108
e 234 109
e 234 110
e 236 237
e 237 112
e 236 113
e 236 114
e 236 115
e 238 239
e 239 112
e 238 113
e 238 114
e 238 116
e 240 241
e 241 112
e 240 113
e 240 115
e 240 116
e 242 243
e 243 112
e 242 114
e 242 115
e 242 116
e 244 245
e 245 113
e 244 114
e 244 115
e 244 116
e 246 247
e 247 118
e 246 119
e 246 120
e 246 121
e 248 249
e 249 118
e 248 119
e 248 120
e 248 122
e 250 251
e 251 118
e 250 119
e 250 121
e 250 122
e 252 253
e 253 118
e 252 120
e 252 121
e 252 122
e 254 255
e 255 119
e 254 120
e 254 121
e 254 122
e 256 257
e 257 124
e 256 125
e 256 126
e 256 127
e 258 259
e 259 124
e 258 125
e 258 126
e 258 128
e 260 261
e 261 124
e 260 125
e 260 127
e 260 128
e 262 263
e 263 124
e 262 126
e 262 127
e 262 128
e 264 265
e 265 125
e 264 126
e 264 127
e 264 128
e 266 267
e 267 130
e 266 131
e 266 132
e 266 133
e 268 269
e 269 130
e 268 131
e 268 132
e 268 134
e 270 271
e 271 130
e 270 131
e 270 133
e 270 134
e 272 273
e 273 130
e 272 132
e 272 133
e 272 134
e 274 275
e 275 131
e 274 132
e 274 133
e 274 134
e 276 277
e 277 136
e 276 137
e 276 138
e 276 139
e 278 279
e 279 136
e 278 137
e 278 138
e 278 140
e 280 281
e 281 136
e 280 137
e 280 139
e 280 140
e 282 283
e 283 136
e 282 138
e 282 139
e 282 140
e 284 285
e 285 137
e 284 138
e 284 139
e 284 140
e 286 287
e 287 142
e 286 143
e 286 144
e 286 145
e 288 289
e 289 142
e 288 143
e 288 144
e 288 146
e 290 291
e 291 142
e 290 143
e 290 145
e 290 146
e 292 293
e 293 142
e 292 144
e 292 145
e 292 146
e 294 295
e 295 143
e 294 144
e 294 145
e 294 146
e 296 297
e 297 148
e 296 149
e 296 150
e 296 151
e 298 299
e 299 148
e 298 149
e 298 150
e 298 152
e 300 301
e 301 148
e 300 149
e 300 151
e 300 152
e 302 303
e 303 148
e 302 150
e 302 151
e 302 152
e 304 305
e 305 149
e 304 150
e 304 151
e 304 152
e 306 307
e 307 154
e 306 155
e 306 156
e 306 157
e 308 309
e 309 154
e 308 155
e 308 156
e 308 158
e 310 311
e 311 154
e 310 155
e 310 157
e 310 158
e 312 313
e 313 154
e 312 156
e 312 157
e 312 158
e 314 315
e 315 155
e 314 156
e 314 157
e 314 158
e 316 317
e 317 160
e 316 161
e 316 162
e 316 163
e 318 319
e 319 160
e 318 161
e 318 162
e 318 164
e 320 321
e 321 160
e 320 161
e 320 163
e 320 164
e 322 323
e 323 160
e 322 162
e 322 163
e 322 164
e 324 325
e 325 161
e 324 162
e 324 163
e 324 164
e 326 327
e 327 3
e 326 9
e 326 5
e 328 329
e 329 3
e 328 4
e 328 5
e 330 331
e 331 24
e 330 30
e 330 26
e 332 333
e 333 24
e 332 25
e 332 26
e 334 335
e 335 45
e 334 51
e 334 47
e 336 337
e 337 45
e 336 46
e 336 47
e 338 339
e 339 66
e 338 72
e 338 68
e 340 341
e 341 66
e 340 67
e 340 68
e 342 343
e 343 87
e 342 93
e 342 89
e 344 345
e 345 87
e 344 88
e 344 89
e 346 347
e 347 9
e 346 4
e 346 5
e 348 349
e 349 9
e 348 12
e 348 5
e 350 351
e 351 4
e 350 19
e 350 5
e 352 353
e 353 4
e 352 12
e 352 5
e 354 355
e 355 30
e 354 25
e 354 26
e 356 357
e 357 30
e 356 33
e 356 26
e 358 359
e 359 25
e 358 40
e 358 26
e 360 361
e 361 25
e 360 33
e 360 26
e 362 363
e 363 51
e 362 46
e 362 47
e 364 365
e 365 51
e 364 54
e 364 47
e 366 367
e 367 46
e 366 61
e 366 47
e 368 369
e 369 46
e 368 54
e 368 47
e 370 371
e 371 72
e 370 67
e 370 68
e 372 373
e 373 72
e 372 75
e 372 68
e 374 375
e 375 67
e 374 82
e 374 68
e 376 377
e 377 67
e 376 75
e 376 68
e 378 379
e 379 93
e 378 88
e 378 89
e 380 381
e 381 93
e 380 96
e 380 89
e 382 383
e 383 88
e 382 103
e 382 89
e 384 385
e 385 88
e 384 96
e 384 89
e 106 386
e 107 386
e 108 386
e 106 387
e 107 387
e 109 387
e 106 388
e 107 388
e 110 388
e 106 389
e 108 389
e 109 389
e 106 390
e 108 390
e 110 390
e 106 391
e 109 391
e 110 391
e 392 393
e 393 108
e 392 109
e 392 110
e 112 394
e 113 394
e 114 394
e 112 395
e 113 395
e 115 395
e 112 396
e 113 396
e 116 396
e 112 397
e 114 397
e 115 397
e 112 398
e 114 398
e 116 398
e 112 399
e 115 399
e 116 399
e 400 401
e 401 114
e 400 115
e 400 116
e 118 402
e 119 402
e 120 402
e 118 403
e 119 403
e 121 403
e 118 404
e 119 404
e 122 404
e 118 405
e 120 405
e 121 405
e 118 406
e 120 406
e 122 406
e 118 407
e 121 407
e 122 407
e 408 409
e 409 120
e 408 121
e 408 122
e 124 410
e 125 410
e 126 410
e 124 411
e 125 411
e 127 411
e 124 412
e 125 412
e 128 412
e 124 413
e 126 413
e 127 413
e 124 414
e 126 414
e 128 414
e 124 415
e 127 415
e 128 415
e 416 417
e 417 126
e 416 127
e 416 128
e 130 418
e 131 418
e 132 418
e 130 419
e 131 419
e 133 419
e 130 420
e 131 420
e 134 420
e 130 421
e 132 421
e 133 421
e 130 422
e 132 422
e 134 422
e 130 423
e 133 423
e 134 423
e 424 425
e 425 132
e 424 133
e 424 134
e 136 426
e 137 426
e 138 426
e 136 427
e 137 427
e 139 427
e 136 428
e 137 428
e 140 428
e 136 429
e 138 429
e 139 429
e 136 430
e 138 430
e 140 430
e 136 431
e 139 431
e 140 431
e 432 433
e 433 138
e 432 139
e 432 140
e 142 434
e 143 434
e 144 434
e 142 435
e 143 435
e 145 435
e 142 436
e 143 436
e 146 436
e 142 437
e 144 437
e 145 437
e 142 438
e 144 438
e 146 438
e 142 439
e 145 439
e 146 439
e 440 441
e 441 144
e 440 145
e 440 146
e 148 442
e 149 442
e 150 442
e 148 443
e 149 443
e 151 443
e 148 444
e 149 444
e 152 444
e 148 445
e 150 445
e 151 445
e 148 446
e 150 446
e 152 446
e 148 447
e 151 447
e 152 447
e 448 449
e 449 150
e 448 151
e 448 152
e 154 450
e 155 450
e 156 450
e 154 451
e 155 451
e 157 451
e 154 452
e 155 452
e 158 452
e 154 453
e 156 453
e 157 453
e 154 454
e 156 454
e 158 454
e 154 455
e 157 455
e 158 455
e 456 457
e 457 156
e 456 157
e 456 158
e 160 458
e 161 458
e 162 458
e 160 459
e 161 459
e 163 459
e 160 460
e 161 460
e 164 460
e 160 461
e 162 461
e 163 461
e 160 462
e 162 462
e 164 462
e 160 463
e 163 463
e 164 463
e 464 465
e 465 162
e 464 163
e 464 164
e 466 467
e 467 1
e 466 9
e 1 468
e 106 468
e 1 469
e 112 469
e 1 470
e 118 470
e 1 471
e 124 471
e 1 472
e 130 472
e 1 473
e 136 473
e 1 474
e 142 474
e 475 476
e 476 8
e 475 4
e 8 477
e 106 477
e 8 478
e 112 478
e 8 479
e 118 479
e 8 480
e 124 480
e 8 481
e 148 481
e 8 482
e 154 482
e 483 484
e 484 2
e 483 19
e 2 485
e 106 485
e 2 486
e 112 486
e 2 487
e 130 487
e 488 489
e 489 3
e 488 12
e 3 490
e 106 490
e 3 491
e 118 491
e 3 492
e 136 492
e 3 493
e 148 493
e 494 495
e 495 22
e 494 30
e 22 496
e 107 496
e 22 497
e 113 497
e 22 498
e 119 498
e 22 499
e 125 499
e 22 500
e 131 500
e 22 501
e 137 501
e 22 502
e 143 502
e 503 504
e 504 29
e 503 25
e 29 505
e 107 505
e 29 506
e 113 506
e 29 507
e 119 507
e 29 508
e 125 508
e 29 509
e 149 509
e 29 510
e 155 510
e 511 512
e 512 23
e 511 40
e 23 513
e 107 513
e 23 514
e 113 514
e 23 515
e 131 515
e 516 517
e 517 24
e 516 33
e 24 518
e 107 518
e 24 519
e 119 519
e 24 520
e 137 520
e 24 521
e 149 521
e 522 523
e 523 43
e 522 51
e 43 524
e 108 524
e 43 525
e 114 525
e 43 526
e 120 526
e 43 527
e 126 527
e 43 528
e 132 528
e 43 529
e 138 529
e 43 530
e 144 530
e 531 532
e 532 50
e 531 46
e 50 533
e 108 533
e 50 534
e 114 534
e 50 535
e 120 535
e 50 536
e 126 536
e 50 537
e 150 537
e 50 538
e 156 538
e 539 540
e 540 44
e 539 61
e 44 541
e 108 541
e 44 542
e 114 542
e 44 543
e 132 543
e 544 545
e 545 45
e 544 54
e 45 546
e 108 546
e 45 547
e 120 547
e 45 548
e 138 548
e 45 549
e 150 549
e 550 551
e 551 64
e 550 72
e 64 552
e 109 552
e 64 553
e 115 553
e 64 554
e 121 554
e 64 555
e 127 555
e 64 556
e 133 556
e 64 557
e 139 557
e 64 558
e 145 558
e 559 560
e 560 71
e 559 67
e 71 561
e 109 561
e 71 562
e 115 562
e 71 563
e 121 563
e 71 564
e 127 564
e 71 565
e 151 565
e 71 566
e 157 566
e 567 568
e 568 65
e 567 82
e 65 569
e 109 569
e 65 570
e 115 570
e 65 571
e 133 571
e 572 573
e 573 66
e 572 75
e 66 574
e 109 574
e 66 575
e 121 575
e 66 576
e 139 576
e 66 577
e 151 577
e 578 579
e 579 85
e 578 93
e 85 580
e 110 580
e 85 581
e 116 581
e 85 582
e 122 582
e 85 583
e 128 583
e 85 584
e 134 584
e 85 585
e 140 585
e 85 586
e 146 586
e 587 588
e 588 92
e 587 88
e 92 589
e 110 589
e 92 590
e 116 590
e 92 591
e 122 591
e 92 592
e 128 592
e 92 593
e 152 593
e 92 594
e 158 594
e 595 596
e 596 86
e 595 103
e 86 597
e 110 597
e 86 598
e 116 598
e 86 599
e 134 599
e 600 601
e 601 87
e 600 96
e 87 602
e 110 602
e 87 603
e 122 603
e 87 604
e 140 604
e 87 605
e 152 605
e 606 607
e 607 9
e 606 5
e 9 608
e 148 608
e 9 609
e 154 609
e 9 610
e 160 610
e 611 612
e 612 4
e 611 5
e 4 613
e 130 613
e 4 614
e 136 614
e 4 615
e 142 615
e 4 616
e 160 616
e 617 618
e 618 19
e 617 5
e 19 619
e 118 619
e 19 620
e 124 620
e 19 621
e 136 621
e 19 622
e 142 622
e 19 623
e 148 623
e 19 624
e 154 624
e 19 625
e 160 625
e 626 627
e 627 12
e 626 5
e 12 628
e 112 628
e 12 629
e 124 629
e 12 630
e 130 630
e 12 631
e 142 631
e 12 632
e 154 632
e 12 633
e 160 633
e 634 635
e 635 30
e 634 26
e 30 636
e 149 636
e 30 637
e 155 637
e 30 638
e 161 638
e 639 640
e 640 25
e 639 26
e 25 641
e 131 641
e 25 642
e 137 642
e 25 643
e 143 643
e 25 644
e 161 644
e 645 646
e 646 40
e 645 26
e 40 647
e 119 647
e 40 648
e 125 648
e 40 649
e 137 649
e 40 650
e 143 650
e 40 651
e 149 651
e 40 652
e 155 652
e 40 653
e 161 653
e 654 655
e 655 33
e 654 26
e 33 656
e 113 656
e 33 657
e 125 657
e 33 658
e 131 658
e 33 659
e 143 659
e 33 660
e 155 660
e 33 661
e 161 661
e 662 663
e 663 51
e 662 47
e 51 664
e 150 664
e 51 665
e 156 665
e 51 666
e 162 666
e 667 668
e 668 46
e 667 47
e 46 669
e 132 669
e 46 670
e 138 670
e 46 671
e 144 671
e 46 672
e 162 672
e 673 674
e 674 61
e 673 47
e 61 675
e 120 675
e 61 676
e 126 676
e 61 677
e 138 677
e 61 678
e 144 678
e 61 679
e 150 679
e 61 680
e 156 680
e 61 681
e 162 681
e 682 683
e 683 54
e 682 47
e 54 684
e 114 684
e 54 685
e 126 685
e 54 686
e 132 686
e 54 687
e 144 687
e 54 688
e 156 688
e 54 689
e 162 689
e 690 691
e 691 72
e 690 68
e 72 692
e 151 692
e 72 693
e 157 693
e 72 694
e 163 694
e 695 696
e 696 67
e 695 68
e 67 697
e 133 697
e 67 698
e 139 698
e 67 699
e 145 699
e 67 700
e 163 700
e 701 702
e 702 82
e 701 68
e 82 703
e 121 703
e 82 704
e 127 704
e 82 705
e 139 705
e 82 706
e 145 706
e 82 707
e 151 707
e 82 708
e 157 708
e 82 709
e 163 709
e 710 711
e 711 75
e 710 68
e 75 712
e 115 712
e 75 713
e 127 713
e 75 714
e 133 714
e 75 715
e 145 715
e 75 716
e 157 716
e 75 717
e 163 717
e 718 719
e 719 93
e 718 89
e 93 720
e 152 720
e 93 721
e 158 721
e 93 722
e 164 722
e 723 724
e 724 88
e 723 89
e 88 725
e 134 725
e 88 726
e 140 726
e 88 727
e 146 727
e 88 728
e 164 728
e 729 730
e 730 103
e 729 89
e 103 731
e 122 731
e 103 732
e 128 732
e 103 733
e 140 733
e 103 734
e 146 734
e 103 735
e 152 735
e 103 736
e 158 736
e 103 737
e 164 737
e 738 739
e 739 96
e 738 89
e 96 740
e 116 740
e 96 741
e 128 741
e 96 742
e 134 742
e 96 743
e 146 743
e 96 744
e 158 744
e 96 745
e 164 745
e 5 746
e 106 746
e 5 747
e 112 747
e 5 748
e 118 748
e 5 749
e 124 749
e 5 750
e 130 750
e 5 751
e 136 751
e 5 752
e 142 752
e 5 753
e 148 753
e 5 754
e 154 754
e 5 755
e 160 755
e 26 756
e 107 756
e 26 757
e 113 757
e 26 758
e 119 758
e 26 759
e 125 759
e 26 760
e 131 760
e 26 761
e 137 761
e 26 762
e 143 762
e 26 763
e 149 763
e 26 764
e 155 764
e 26 765
e 161 765
e 47 766
e 108 766
e 47 767
e 114 767
e 47 768
e 120 768
e 47 769
e 126 769
e 47 770
e 132 770
e 47 771
e 138 771
e 47 772
e 144 772
e 47 773
e 150 773
e 47 774
e 156 774
e 47 775
e 162 775
e 68 776
e 109 776
e 68 777
e 115 777
e 68 778
e 121 778
e 68 779
e 127 779
e 68 780
e 133 780
e 68 781
e 139 781
e 68 782
e 145 782
e 68 783
e 151 783
e 68 784
e 157 784
e 68 785
e 163 785
e 89 786
e 110 786
e 89 787
e 116 787
e 89 788
e 122 788
e 89 789
e 128 789
e 89 790
e 134 790
e 89 791
e 140 791
e 89 792
e 146 792
e 89 793
e 152 793
e 89 794
e 158 794
e 89 795
e 164 795
e 796 797
e 797 106
e 796 107
e 798 799
e 799 106
e 798 108
e 800 801
e 801 106
e 800 109
e 802 803
e 803 106
e 802 110
e 804 805
e 805 107
e 804 108
e 806 807
e 807 107
e 806 109
e 808 809
e 809 107
e 808 110
e 810 811
e 811 108
e 810 109
e 812 813
e 813 108
e 812 110
e 814 815
e 815 109
e 814 110
e 816 817
e 817 112
e 816 113
e 818 819
e 819 112
e 818 114
e 820 821
e 821 112
e 820 115
e 822 823
e 823 112
e 822 116
e 824 825
e 825 113
e 824 114
e 826 827
e 827 113
e 826 115
e 828 829
e 829 113
e 828 116
e 830 831
e 831 114
e 830 115
e 832 833
e 833 114
e 832 116
e 834 835
e 835 115
e 834 116
e 836 837
e 837 118
e 836 119
e 838 839
e 839 118
e 838 120
e 840 841
e 841 118
e 840 121
e 842 843
e 843 118
e 842 122
e 844 845
e 845 119
e 844 120
e 846 847
e 847 119
e 846 121
e 848 849
e 849 119
e 848 122
e 850 851
e 851 120
e 850 121
e 852 853
e 853 120
e 852 122
e 854 855
e 855 121
e 854 122
e 856 857
e 857 124
e 856 125
e 858 859
e 859 124
e 858 126
e 860 861
e 861 124
e 860 127
e 862 863
e 863 124
e 862 128
e 864 865
e 865 125
e 864 126
e 866 867
e 867 125
e 866 127
e 868 869
e 869 125
e 868 128
e 870 871
e 871 126
e 870 127
e 872 873
e 873 126
e 872 128
e 874 875
e 875 127
e 874 128
e 876 877
e 877 130
e 876 131
e 878 879
e 879 130
e 878 132
e 880 881
e 881 130
e 880 133
e 882 883
e 883 130
e 882 134
e 884 885
e 885 131
e 884 132
e 886 887
e 887 131
e 886 133
e 888 889
e 889 131
e 888 134
e 890 891
e 891 132
e 890 133
e 892 893
e 893 132
e 892 134
e 894 895
e 895 133
e 894 134
e 896 897
e 897 136
e 896 137
e 898 899
e 899 136
e 898 138
e 900 901
e 901 136
e 900 139
e 902 903
e 903 136
e 902 140
e 904 905
e 905 137
e 904 138
e 906 907
e 907 137
e 906 139
e 908 909
e 909 137
e 908 140
e 910 911
e 911 138
e 910 139
e 912 913
e 913 138
e 912 140
e 914 915
e 915 139
e 914 140
e 916 917
e 917 142
e 916 143
e 918 919
e 919 142
e 918 144
e 920 921
e 921 142
e 920 145
e 922 923
e 923 142
e 922 146
e 924 925
e 925 143
e 924 144
e 926 927
e 927 143
e 926 145
e 928 929
e 929 143
e 928 146
e 930 931
e 931 144
e 930 145
e 932 933
e 933 144
e 932 146
e 934 935
e 935 145
e 934 146
e 936 937
e 937 148
e 936 149
e 938 939
e 939 148
e 938 150
e 940 941
e 941 148
e 940 151
e 942 943
e 943 148
e 942 152
e 944 945
e 945 149
e 944 150
e 946 947
e 947 149
e 946 151
e 948 949
e 949 149
e 948 152
e 950 951
e 951 150
e 950 151
e 952 953
e 953 150
e 952 152
e 954 955
e 955 151
e 954 152
e 956 957
e 957 154
e 956 155
e 958 959
e 959 154
e 958 156
e 960 961
e 961 154
e 960 157
e 962 963
e 963 154
e 962 158
e 964 965
e 965 155
e 964 156
e 966 967
e 967 155
e 966 157
e 968 969
e 969 155
e 968 158
e 970 971
e 971 156
e 970 157
e 972 973
e 973 156
e 972 158
e 974 975
e 975 157
e 974 158
e 976 977
e 977 160
e 976 161
e 978 979
e 979 160
e 978 162
e 980 981
e 981 160
e 980 163
e 982 983
e 983 160
e 982 164
e 984 985
e 985 161
e 984 162
e 986 987
e 987 161
e 986 163
e 988 989
e 989 161
e 988 164
e 990 991
e 991 162
e 990 163
e 992 993
e 993 162
e 992 164
e 994 995
e 995 163
e 994 164
